26
18 23
18 3
18 5
23 24
23 10
14 22
14 6
14 21
22 5
22 6
0 24
0 10
0 21
24 17
5 20
17 13
17 25
13 7
13 15
6 8
8 11
8 7
7 9
12 21
12 3
12 9
3 20
4 11
4 16
4 19
11 25
1 2
1 20
1 16
2 25
2 15
9 19
19 15
10 16
